1 -1 2 0
1 1 3 0
1 -2 -4 0
1 -2 5 0
1 -2 1 0
1 -2 6 0
1 2 -3 0
1 -7 8 0
1 -7 -9 0
1 -7 10 0
1 -7 -6 0
1 10 8 0
1 10 -9 0
1 10 11 0
1 -10 -12 0
1 10 -7 0
1 5 -13 0
1 -5 1 0
1 5 3 0
1 -3 5 0
1 -3 14 0
1 -3 15 0
1 3 16 0
1 12 -17 0
1 -12 10 0
1 12 -2 0
1 12 14 0
1 -12 -18 0
1 -12 19 0
1 -12 -1 0
1 12 6 0
1 -6 -20 0
1 6 -12 0
1 6 19 0
1 -6 -1 0
1 6 21 0
1 16 -8 0
1 -16 -9 0
1 16 -19 0
1 16 -3 0
1 22 20 0
1 -22 -5 0
1 22 23 0
1 -22 -16 0
1 15 -8 0
1 -15 13 0
1 15 -24 0
1 13 -25 0
1 -13 -24 0
1 -13 26 0
1 -13 -27 0
1 13 -28 0
1 -23 29 0
1 23 13 0
1 -23 30 0
1 23 31 0
1 23 -16 0
1 -9 32 0
1 9 -33 0
1 9 -22 0
1 -9 -10 0
1 9 -34 0
1 -9 -30 0
1 9 -31 0
1 -9 -7 0
1 -26 17 0
1 -26 -13 0
1 26 22 0
1 26 -34 0
1 -26 -35 0
1 -26 -15 0
1 26 7 0
1 26 -36 0
1 -8 -37 0
1 -8 -34 0
1 -8 -26 0
1 -8 7 0
1 8 -36 0
1 -31 -29 0
1 -31 25 0
1 -31 24 0
1 31 23 0
1 31 -27 0
1 31 -28 0
1 29 24 0
1 -29 -31 0
1 29 -23 0
1 -29 -27 0
1 30 32 0
1 30 9 0
1 -30 25 0
1 30 24 0
1 30 27 0
1 -32 -25 0
1 -32 24 0
1 32 -30 0
1 -32 -27 0
1 28 -13 0
1 28 -30 0
1 -28 -31 0
1 -28 15 0
1 -24 32 0
1 24 -29 0
1 24 -13 0
1 -24 38 0
1 -24 31 0
1 27 -13 0
1 27 -15 0
1 -27 -39 0
1 -25 40 0
1 -25 41 0
1 25 31 0
1 25 -39 0
1 25 -42 0
1 25 36 0
1 -43 44 0
1 43 -4 0
1 4 45 0
1 4 -46 0
1 -4 -43 0
1 -47 -48 0
1 -47 -11 0
1 -47 -49 0
1 47 50 0
1 -11 10 0
1 11 50 0
1 -11 47 0
1 -51 -52 0
1 51 -20 0
1 51 46 0
1 -51 -53 0
1 -51 47 0
1 51 43 0
1 -46 54 0
1 46 53 0
1 46 -18 0
1 -46 47 0
1 -46 -43 0
1 44 54 0
1 44 -55 0
1 -44 47 0
1 -44 -43 0
1 56 -57 0
1 -56 -47 0
1 19 12 0
1 -19 -49 0
1 -19 16 0
1 20 -22 0
1 20 -46 0
1 -20 -6 0
1 18 51 0
1 -18 58 0
1 18 59 0
1 -18 -46 0
1 -18 49 0
1 18 15 0
1 -18 50 0
1 -18 55 0
1 18 -60 0
1 -18 -6 0
1 -61 -51 0
1 61 -58 0
1 61 -59 0
1 61 -12 0
1 -61 -49 0
1 -61 -60 0
1 48 -61 0
1 48 20 0
1 -48 -62 0
1 48 -11 0
1 48 63 0
1 48 -14 0
1 -48 -18 0
1 48 47 0
1 50 -11 0
1 50 63 0
1 -50 -14 0
1 50 -64 0
1 50 19 0
1 -50 47 0
1 65 -66 0
1 -65 -54 0
1 -65 67 0
1 -65 68 0
1 65 -18 0
1 -49 -66 0
1 49 -54 0
1 49 -61 0
1 49 65 0
1 49 -20 0
1 49 -11 0
1 49 63 0
1 -49 53 0
1 -49 69 0
1 49 47 0
1 14 8 0
1 -14 -12 0
1 -14 5 0
1 -14 31 0
1 14 60 0
1 14 6 0
1 14 -3 0
1 17 -8 0
1 17 -58 0
1 -17 12 0
1 -17 14 0
1 17 50 0
1 17 60 0
1 35 -70 0
1 35 48 0
1 -35 59 0
1 35 71 0
1 35 72 0
1 -35 30 0
1 35 73 0
1 -74 -70 0
1 74 32 0
1 74 -71 0
1 74 -72 0
1 74 26 0
1 74 35 0
1 74 -50 0
1 -74 21 0
1 -59 -17 0
1 59 75 0
1 -59 35 0
1 59 14 0
1 59 76 0
1 -59 36 0
1 73 74 0
1 73 -17 0
1 -73 -34 0
1 73 18 0
1 73 42 0
1 58 74 0
1 58 -17 0
1 58 -61 0
1 -58 -77 0
1 58 18 0
1 60 74 0
1 -60 -78 0
1 60 -79 0
1 60 -18 0
1 60 -80 0
1 -34 70 0
1 34 9 0
1 34 -25 0
1 34 59 0
1 -34 71 0
1 -34 63 0
1 34 72 0
1 34 21 0
1 -34 36 0
1 -36 -8 0
1 -36 -70 0
1 36 -25 0
1 36 -71 0
1 36 73 0
1 -36 21 0
1 75 70 0
1 -75 -33 0
1 75 -59 0
1 -75 -79 0
1 75 81 0
1 75 -82 0
1 75 42 0
1 75 -21 0
1 -42 70 0
1 -42 -25 0
1 42 59 0
1 42 -72 0
1 -42 -81 0
1 -42 27 0
1 -42 -21 0
1 -72 -74 0
1 -72 -83 0
1 -72 -41 0
1 72 -75 0
1 -72 -34 0
1 72 5 0
1 -72 84 0
1 -72 85 0
1 72 -39 0
1 72 -42 0
1 -70 -34 0
1 -70 -72 0
1 -70 -3 0
1 -70 -85 0
1 70 -86 0
1 70 -36 0
1 -71 74 0
1 -71 83 0
1 -71 34 0
1 71 35 0
1 71 21 0
1 21 -83 0
1 21 -87 0
1 -21 -78 0
1 -21 71 0
1 -21 -34 0
1 21 35 0
1 21 6 0
1 21 -76 0
1 41 33 0
1 -41 81 0
1 -39 70 0
1 39 37 0
1 -39 33 0
1 -39 -25 0
1 39 -24 0
1 -39 -41 0
1 39 81 0
1 88 33 0
1 -88 -82 0
1 88 89 0
1 -88 -90 0
1 86 -70 0
1 86 -37 0
1 -86 -40 0
1 86 38 0
1 86 -72 0
1 -86 -81 0
1 -86 89 0
1 86 90 0
1 86 -91 0
1 82 -92 0
1 -82 -93 0
1 82 94 0
1 82 88 0
1 -82 -75 0
1 82 95 0
1 -82 96 0
1 -82 97 0
1 82 98 0
1 -82 -86 0
1 82 -39 0
1 33 -92 0
1 -33 93 0
1 33 -94 0
1 -33 -88 0
1 33 75 0
1 -33 96 0
1 33 -82 0
1 -33 98 0
1 33 39 0
1 81 -37 0
1 -81 -92 0
1 -81 -99 0
1 -81 41 0
1 81 75 0
1 81 26 0
1 -81 85 0
1 81 -39 0
1 -37 -92 0
1 -37 -41 0
1 -37 -75 0
1 37 -81 0
1 -37 -39 0
1 37 -42 0
1 94 -40 0
1 -94 -38 0
1 94 -89 0
1 -94 82 0
1 94 -90 0
1 98 -82 0
1 98 89 0
1 98 90 0
1 -93 33 0
1 93 -40 0
1 -93 99 0
1 93 -38 0
1 93 90 0
1 96 38 0
1 96 -89 0
1 90 94 0
1 -90 38 0
1 -90 88 0
1 -90 100 0
1 90 96 0
1 -90 -98 0
1 90 -28 0
1 -90 -101 0
1 38 102 0
1 -38 -24 0
1 -38 94 0
1 38 -100 0
1 38 96 0
1 -38 98 0
1 89 103 0
1 89 -93 0
1 89 -40 0
1 -89 -100 0
1 -89 -104 0
1 89 -95 0
1 89 27 0
1 -89 -86 0
1 40 92 0
1 40 -25 0
1 -40 -93 0
1 -40 -105 0
1 -40 94 0
1 40 -88 0
1 40 104 0
1 -106 107 0
1 106 108 0
1 -106 109 0
1 45 107 0
1 -45 110 0
1 -45 -106 0
1 -111 -112 0
1 -111 113 0
1 111 110 0
1 111 -114 0
1 111 -115 0
1 -113 -112 0
1 -113 109 0
1 113 115 0
1 113 -111 0
1 -110 116 0
1 -110 55 0
1 -110 -117 0
1 110 111 0
1 108 110 0
1 108 -116 0
1 -108 -118 0
1 -108 113 0
1 108 -55 0
1 -108 106 0
1 109 119 0
1 -109 -107 0
1 -109 106 0
1 107 -113 0
1 107 -45 0
1 -107 -111 0
1 107 106 0
1 -117 44 0
1 -117 -108 0
1 -117 110 0
1 -117 115 0
1 -120 44 0
1 -120 -108 0
1 -120 20 0
1 120 -121 0
1 120 -110 0
1 -120 -117 0
1 120 -115 0
1 55 -116 0
1 55 108 0
1 -55 -121 0
1 -55 122 0
1 -55 -18 0
1 -55 -114 0
1 116 44 0
1 116 61 0
1 -116 -108 0
1 -116 112 0
1 116 -121 0
1 -116 -123 0
1 116 -56 0
1 -116 -114 0
1 116 115 0
1 115 -124 0
1 -115 66 0
1 -115 -54 0
1 115 -113 0
1 -115 -125 0
1 -115 53 0
1 -115 126 0
1 -121 -124 0
1 121 54 0
1 121 116 0
1 121 -120 0
1 -121 -113 0
1 -121 -127 0
1 -121 -125 0
1 121 -117 0
1 -121 111 0
1 -114 -124 0
1 -114 -116 0
1 -114 -120 0
1 -114 -113 0
1 -112 -120 0
1 112 113 0
1 112 -114 0
1 -112 125 0
1 112 -55 0
1 53 -128 0
1 53 44 0
1 -53 54 0
1 53 -65 0
1 53 121 0
1 -53 -56 0
1 53 49 0
1 -53 14 0
1 -54 -44 0
1 54 -51 0
1 -54 123 0
1 -54 -46 0
1 54 49 0
1 -54 115 0
1 -68 128 0
1 68 66 0
1 -68 -65 0
1 -68 121 0
1 -68 -122 0
1 68 123 0
1 68 57 0
1 -68 -35 0
1 68 -115 0
1 66 128 0
1 66 -74 0
1 -66 -52 0
1 -66 -122 0
1 -66 -123 0
1 -66 68 0
1 66 -129 0
1 66 115 0
1 -66 130 0
1 128 131 0
1 128 -132 0
1 128 116 0
1 -128 -133 0
1 -128 -63 0
1 123 54 0
1 123 116 0
1 -123 -133 0
1 -123 79 0
1 123 -63 0
1 -123 -55 0
1 -123 -134 0
1 -130 66 0
1 -130 54 0
1 130 135 0
1 122 -66 0
1 122 -116 0
1 -122 -133 0
1 122 -125 0
1 122 55 0
1 -122 134 0
1 122 135 0
1 -63 -128 0
1 -63 -52 0
1 -63 65 0
1 -63 -48 0
1 -63 -58 0
1 63 -123 0
1 -63 -34 0
1 63 49 0
1 131 128 0
1 -131 124 0
1 -131 -136 0
1 -131 48 0
1 131 58 0
1 131 -129 0
1 131 49 0
1 131 60 0
1 131 -36 0
1 -79 52 0
1 -79 67 0
1 79 -62 0
1 -79 -75 0
1 -79 123 0
1 -79 -129 0
1 -79 -64 0
1 79 -60 0
1 -79 80 0
1 80 -128 0
1 80 -62 0
1 80 -79 0
1 80 -57 0
1 -80 129 0
1 -80 69 0
1 80 64 0
1 -80 -60 0
1 80 42 0
1 -80 135 0
1 -52 131 0
1 52 -51 0
1 52 87 0
1 52 78 0
1 -52 -63 0
1 -52 -68 0
1 52 91 0
1 129 79 0
1 129 63 0
1 -129 68 0
1 129 -137 0
1 -129 91 0
1 -129 -80 0
1 136 -44 0
1 -136 -66 0
1 -136 -138 0
1 -136 -57 0
1 57 66 0
1 57 133 0
1 -57 63 0
1 -57 -139 0
1 57 140 0
1 78 -62 0
1 -78 58 0
1 78 133 0
1 -78 129 0
1 -78 -69 0
1 -78 -64 0
1 78 73 0
1 78 21 0
1 76 -52 0
1 -76 -78 0
1 76 -71 0
1 -76 129 0
1 76 -60 0
1 76 39 0
1 76 -134 0
1 87 -52 0
1 87 141 0
1 -87 -142 0
1 87 71 0
1 -87 69 0
1 87 -91 0
1 91 -52 0
1 -91 -67 0
1 91 -142 0
1 91 69 0
1 91 64 0
1 91 -141 0
1 62 143 0
1 62 48 0
1 -62 78 0
1 62 79 0
1 62 -144 0
1 62 -85 0
1 -62 80 0
1 -64 -143 0
1 64 -78 0
1 -64 -79 0
1 -64 -144 0
1 -64 85 0
1 64 145 0
1 -64 -91 0
1 -67 -143 0
1 -67 -65 0
1 -67 -146 0
1 -67 -147 0
1 -67 79 0
1 67 144 0
1 -67 -69 0
1 67 91 0
1 -67 -76 0
1 -69 148 0
1 -69 67 0
1 -69 -87 0
1 69 78 0
1 69 -144 0
1 69 -76 0
1 -69 80 0
1 83 37 0
1 83 94 0
1 -83 -62 0
1 -83 -147 0
1 83 142 0
1 -83 -72 0
1 -83 81 0
1 83 -149 0
1 83 -21 0
1 -85 -37 0
1 -85 62 0
1 -85 77 0
1 -85 142 0
1 -85 -71 0
1 85 -98 0
1 -85 139 0
1 -85 21 0
1 99 -150 0
1 -99 37 0
1 99 151 0
1 99 -62 0
1 -99 152 0
1 99 -84 0
1 99 153 0
1 -99 64 0
1 -99 141 0
1 -99 -149 0
1 -153 -37 0
1 153 99 0
1 153 62 0
1 -153 77 0
1 -153 -152 0
1 153 81 0
1 -153 96 0
1 -153 64 0
1 -153 141 0
1 -153 -149 0
1 -142 -154 0
1 -142 -92 0
1 142 -99 0
1 -142 -83 0
1 -142 -155 0
1 -142 -156 0
1 -142 -95 0
1 142 85 0
1 -142 91 0
1 149 154 0
1 149 87 0
1 -149 142 0
1 -149 156 0
1 -149 104 0
1 -149 -153 0
1 149 -91 0
1 149 73 0
1 77 -154 0
1 77 -143 0
1 -77 -83 0
1 77 87 0
1 77 -144 0
1 -77 153 0
1 77 91 0
1 -141 -143 0
1 -141 -99 0
1 141 -83 0
1 141 87 0
1 141 -157 0
1 -141 -144 0
1 -141 -85 0
1 -141 60 0
1 92 -150 0
1 -92 143 0
1 92 -40 0
1 92 142 0
1 92 -152 0
1 92 -82 0
1 -92 -149 0
1 95 -92 0
1 -95 40 0
1 95 142 0
1 -95 -152 0
1 95 84 0
1 95 -81 0
1 95 89 0
1 -103 -150 0
1 -103 158 0
1 -103 159 0
1 -103 160 0
1 -103 40 0
1 103 -142 0
1 -103 84 0
1 -103 161 0
1 -103 -89 0
1 103 -162 0
1 -104 159 0
1 -104 40 0
1 -104 142 0
1 -104 -161 0
1 84 -163 0
1 84 -164 0
1 -84 104 0
1 84 -72 0
1 84 95 0
1 150 -102 0
1 150 -103 0
1 -150 92 0
1 -150 99 0
1 150 -165 0
1 150 166 0
1 152 154 0
1 152 103 0
1 -152 92 0
1 -152 99 0
1 -152 -163 0
1 -152 167 0
1 152 -71 0
1 -152 156 0
1 -152 168 0
1 -162 -154 0
1 162 103 0
1 162 -92 0
1 162 -99 0
1 -162 163 0
1 162 104 0
1 162 -152 0
1 -162 153 0
1 162 21 0
1 -162 -168 0
1 102 154 0
1 102 -38 0
1 -102 84 0
1 102 -161 0
1 -102 97 0
1 102 89 0
1 100 -102 0
1 100 159 0
1 -100 -160 0
1 100 -40 0
1 100 38 0
1 -100 -97 0
1 -100 -89 0
1 -100 -90 0
1 -166 159 0
1 166 -169 0
1 166 164 0
1 166 161 0
1 166 -97 0
1 166 -101 0
1 -164 159 0
1 -164 105 0
1 -164 169 0
1 164 -84 0
1 -164 161 0
1 -164 -97 0
1 -164 -170 0
1 -164 166 0
1 97 -103 0
1 97 160 0
1 97 -164 0
1 97 100 0
1 97 -82 0
1 -97 -171 0
1 160 103 0
1 160 33 0
1 160 172 0
1 -160 -104 0
1 -160 -97 0
1 -160 171 0
1 161 -102 0
1 -161 -164 0
1 -161 100 0
1 -161 -104 0
1 161 81 0
1 -161 173 0
1 161 166 0
1 -159 -37 0
1 159 163 0
1 159 -164 0
1 159 100 0
1 159 104 0
1 159 173 0
1 174 172 0
1 174 97 0
1 -172 105 0
1 172 -169 0
1 171 105 0
1 -171 175 0
1 -171 169 0
1 171 170 0
1 -171 -101 0
1 -175 101 0
1 175 160 0
1 -175 105 0
1 -175 -169 0
1 101 169 0
1 101 -90 0
1 101 171 0
1 101 -174 0
1 101 166 0
1 -169 101 0
1 -169 38 0
1 169 175 0
1 169 -166 0
1 170 -175 0
1 -170 164 0
1 -170 -89 0
1 -170 174 0
1 -170 166 0
1 -105 175 0
1 -105 -174 0
1 125 -176 0
1 125 118 0
1 -125 112 0
1 -125 -121 0
1 125 -63 0
1 125 -177 0
1 124 -176 0
1 124 -112 0
1 124 -122 0
1 124 -125 0
1 -124 119 0
1 -124 -130 0
1 -178 118 0
1 -178 179 0
1 -178 -122 0
1 178 -177 0
1 178 126 0
1 178 130 0
1 -178 -135 0
1 -135 -176 0
1 -135 122 0
1 -135 178 0
1 -135 -126 0
1 -135 -130 0
1 -177 118 0
1 177 -138 0
1 177 -178 0
1 177 -110 0
1 -177 140 0
1 177 134 0
1 177 135 0
1 -118 -108 0
1 118 -138 0
1 -118 178 0
1 118 125 0
1 -118 -135 0
1 -119 124 0
1 119 178 0
1 -119 -125 0
1 -119 180 0
1 119 -135 0
1 -176 -124 0
1 176 -181 0
1 -176 178 0
1 176 119 0
1 -176 -135 0
1 -133 128 0
1 133 -136 0
1 -133 118 0
1 -133 179 0
1 -133 127 0
1 -133 78 0
1 133 123 0
1 133 -177 0
1 133 -126 0
1 -133 -134 0
1 133 -130 0
1 -134 -118 0
1 134 127 0
1 -134 -133 0
1 -134 -57 0
1 -134 -177 0
1 134 -126 0
1 138 -132 0
1 -138 179 0
1 138 -87 0
1 -138 182 0
1 138 57 0
1 -138 -183 0
1 138 -140 0
1 138 -126 0
1 -140 -132 0
1 140 -136 0
1 -140 179 0
1 140 -138 0
1 -140 -184 0
1 -140 -57 0
1 140 -183 0
1 140 126 0
1 140 -185 0
1 126 151 0
1 -126 -138 0
1 126 -133 0
1 -126 186 0
1 -126 134 0
1 126 187 0
1 -127 -188 0
1 -127 151 0
1 127 -147 0
1 -127 189 0
1 -127 190 0
1 127 186 0
1 -127 139 0
1 -127 140 0
1 127 -134 0
1 -183 188 0
1 183 138 0
1 183 -114 0
1 -183 -190 0
1 -183 -140 0
1 183 -191 0
1 179 188 0
1 -179 112 0
1 179 192 0
1 -179 133 0
1 179 178 0
1 179 190 0
1 179 140 0
1 -179 134 0
1 147 -132 0
1 -147 67 0
1 147 83 0
1 147 -57 0
1 -147 139 0
1 -147 -185 0
1 139 132 0
1 139 -67 0
1 -139 147 0
1 -139 -57 0
1 139 69 0
1 139 85 0
1 139 126 0
1 139 185 0
1 -151 -132 0
1 151 -193 0
1 -151 127 0
1 151 184 0
1 151 -186 0
1 151 126 0
1 151 185 0
1 -186 -132 0
1 -186 67 0
1 -186 -151 0
1 -186 -182 0
1 186 194 0
1 186 137 0
1 -186 -126 0
1 186 -185 0
1 132 -128 0
1 132 195 0
1 -132 158 0
1 -132 196 0
1 -132 -143 0
1 132 151 0
1 -132 197 0
1 -132 157 0
1 132 144 0
1 132 -186 0
1 -182 132 0
1 -182 -143 0
1 -182 138 0
1 -182 -123 0
1 182 197 0
1 -182 144 0
1 -182 186 0
1 -182 139 0
1 -185 -198 0
1 -185 184 0
1 185 -130 0
1 -184 -199 0
1 -184 188 0
1 -184 151 0
1 184 -122 0
1 184 200 0
1 -184 -197 0
1 184 -186 0
1 184 139 0
1 -143 -132 0
1 -143 -67 0
1 -143 -201 0
1 143 194 0
1 143 -144 0
1 143 141 0
1 -144 -193 0
1 144 143 0
1 -144 201 0
1 144 -95 0
1 -144 -190 0
1 -144 69 0
1 -144 -137 0
1 -158 182 0
1 158 -157 0
1 158 -137 0
1 -158 141 0
1 157 158 0
1 -157 -201 0
1 157 -146 0
1 -157 -182 0
1 157 104 0
1 -157 202 0
1 157 194 0
1 -157 -137 0
1 157 148 0
1 157 -141 0
1 -201 154 0
1 201 -143 0
1 201 167 0
1 -201 156 0
1 -201 157 0
1 -201 -144 0
1 -201 -137 0
1 201 -186 0
1 201 -168 0
1 137 -154 0
1 -137 143 0
1 137 -144 0
1 -137 -129 0
1 -193 195 0
1 -193 151 0
1 -193 -203 0
1 193 197 0
1 -193 157 0
1 -193 144 0
1 -194 195 0
1 194 158 0
1 194 -143 0
1 -194 -204 0
1 194 -203 0
1 -194 -197 0
1 -194 -157 0
1 154 -102 0
1 -154 -146 0
1 154 -77 0
1 154 -156 0
1 -154 -152 0
1 -154 137 0
1 -154 148 0
1 -154 -145 0
1 156 201 0
1 -156 205 0
1 156 -197 0
1 -156 137 0
1 -156 148 0
1 156 141 0
1 -156 149 0
1 168 -146 0
1 168 -167 0
1 168 -155 0
1 -168 137 0
1 -168 148 0
1 168 -206 0
1 168 -166 0
1 -167 201 0
1 167 -146 0
1 -167 168 0
1 167 -164 0
1 167 152 0
1 167 -137 0
1 -167 -148 0
1 -167 207 0
1 -205 154 0
1 205 145 0
1 -205 -208 0
1 -205 163 0
1 205 167 0
1 -205 173 0
1 -205 165 0
1 145 -154 0
1 -145 158 0
1 -145 -208 0
1 -145 163 0
1 145 -156 0
1 145 -157 0
1 -145 -64 0
1 145 165 0
1 145 -168 0
1 146 154 0
1 146 -204 0
1 -146 -156 0
1 -148 146 0
1 148 -209 0
1 148 204 0
1 148 -167 0
1 -148 157 0
1 -148 69 0
1 -148 168 0
1 165 150 0
1 165 159 0
1 -165 163 0
1 -165 210 0
1 -165 155 0
1 -165 84 0
1 165 161 0
1 165 145 0
1 163 -150 0
1 -163 159 0
1 -163 172 0
1 163 -152 0
1 163 84 0
1 163 161 0
1 163 -206 0
1 163 145 0
1 163 207 0
1 173 159 0
1 173 -155 0
1 173 171 0
1 -208 159 0
1 -208 -175 0
1 208 209 0
1 -208 -210 0
1 208 -155 0
1 -208 -206 0
1 -155 -208 0
1 155 142 0
1 -155 167 0
1 -155 -173 0
1 -155 165 0
1 -206 -208 0
1 206 163 0
1 206 155 0
1 206 -173 0
1 -206 -165 0
1 -210 208 0
1 210 -77 0
1 210 163 0
1 -210 -167 0
1 210 -207 0
1 -210 173 0
1 -210 168 0
1 -207 -163 0
1 207 167 0
1 -207 -173 0
1 188 143 0
1 188 211 0
1 -188 -179 0
1 -188 190 0
1 -188 183 0
1 -188 185 0
1 -190 211 0
1 190 -127 0
1 190 184 0
1 -190 144 0
1 190 -180 0
1 190 -212 0
1 190 185 0
1 -199 -158 0
1 -199 -211 0
1 -199 189 0
1 199 -212 0
1 -199 -191 0
1 -202 199 0
1 202 -192 0
1 -202 157 0
1 202 -180 0
1 -202 -212 0
1 -212 -213 0
1 212 -188 0
1 -212 211 0
1 212 203 0
1 212 -197 0
1 -212 177 0
1 211 199 0
1 -211 202 0
1 180 188 0
1 180 -181 0
1 -180 -202 0
1 -180 -190 0
1 -181 199 0
1 -181 -180 0
1 -181 -176 0
1 181 202 0
1 -181 -190 0
1 -195 154 0
1 195 132 0
1 -195 -193 0
1 195 -192 0
1 195 189 0
1 -195 197 0
1 -195 194 0
1 -195 187 0
1 -195 185 0
1 197 -132 0
1 -197 195 0
1 197 -193 0
1 -197 211 0
1 197 -192 0
1 -197 189 0
1 197 -184 0
1 197 -194 0
1 -197 -187 0
1 213 196 0
1 -213 -211 0
1 -213 -194 0
1 213 -212 0
1 -213 -191 0
1 203 -213 0
1 203 198 0
1 203 -193 0
1 203 -211 0
1 -203 -214 0
1 203 212 0
1 203 -187 0
1 -187 -209 0
1 187 -204 0
1 -187 189 0
1 189 -195 0
1 -189 -199 0
1 -189 203 0
1 189 -197 0
1 -189 202 0
1 189 187 0
1 191 195 0
1 191 -199 0
1 -191 202 0
1 192 -213 0
1 204 196 0
1 204 -201 0
1 -204 146 0
1 -204 163 0
1 -204 200 0
1 204 214 0
1 204 -194 0
1 -204 -148 0
1 -204 -187 0
1 215 -196 0
1 -215 -146 0
1 215 -189 0
1 -215 214 0
1 215 -148 0
1 -215 173 0
1 -215 -187 0
1 209 -146 0
1 209 -208 0
1 209 -189 0
1 -209 200 0
1 -209 214 0
1 209 -148 0
1 -209 215 0
1 209 -187 0
1 -196 -132 0
1 196 -204 0
1 -196 214 0
1 -214 213 0
1 -214 -209 0
1 -214 204 0
1 198 -213 0
1 -198 209 0
1 -198 -204 0
1 -198 -203 0
1 -198 -185 0
1 200 -213 0
1 200 -184 0
1 -200 -203 0
1 200 215 0
